sets/C/cp-consegne-sicilia.vrp
NAME : cp-consegne-sicilia
COMMENT : (Claudio Procida)
TYPE : CVRP
DIMENSION : 19
EDGE_WEIGHT_TYPE : EUC_2D
CAPACITY : 250
NODE_COORD_SECTION
1 198 208
2  73 229
3 244 369
4 314 328
5 347 311
6 434 435
7 503 411
8 474 323
9 544 182
10 62 278
11 260 238
12 501 379
13 348 412
14 84 298
15 166 327
16 395 368
17 510 243
18 302 227
19 395 435
DEMAND_SECTION
1 102
2 13
3 84
4 32
5 75
6 82
7 23
8 64
9 0
10 45
11 68
12 43
13 51
14 27
15 8
16 19
17 32
18 12
19 34
DEPOT_SECTION
9
-1
EOF
