sets/C/cp-consegne-sicilia.opt
Route #1: 7 11 6 5 18
Route #2: 1 9 13
Route #3: 14 2 12 4 3
Route #4: 10 15 16 8 17
cost 2636
